instances/knapsack/discrete/knapsack_60_8.kp
65213
60
279

3 0.3 56
80 8.0 16
78 7.8 78
11 1.1 30
80 8.0 67
65 6.5 99
41 4.1 19
39 3.9 57
93 9.3 40
90 9.0 24
71 7.1 89
31 3.1 73
64 6.4 97
44 4.4 44
84 8.4 93
80 8.0 62
41 4.1 44
24 2.4 88
85 8.5 56
98 9.8 75
33 3.3 79
71 7.1 49
88 8.8 90
34 3.4 82
36 3.6 67
72 7.2 36
70 7.0 46
99 9.9 1
21 2.1 48
31 3.1 98
1 0.1 79
3 0.3 54
63 6.3 54
21 2.1 61
72 7.2 89
41 4.1 35
88 8.8 95
8 0.8 37
80 8.0 68
54 5.4 9
7 0.7 58
29 2.9 15
54 5.4 59
37 3.7 61
11 1.1 32
54 5.4 69
65 6.5 98
13 1.3 6
27 2.7 18
16 1.6 11
94 9.4 81
24 2.4 20
13 1.3 21
40 4.0 51
12 1.2 14
63 6.3 44
1 0.1 16
42 4.2 98
84 8.4 26
58 5.8 65

34887
262

[1.29 4.02 0.61 0.07 3.23 1.8 2.44 2.0 4.17 4.15 3.6 3.92 0.78 2.11 3.67 2.3 2.98 0.1 4.04 0.86 2.84 4.12 0.33 2.28 3.61 2.47 2.74 2.4 4.11 0.66 2.12 0.93 0.05 0.77 1.59 0.16 4.24 0.81 0.24 3.56 0.16 0.21 0.6 3.58 2.65 0.28 1.39 2.61 1.54 0.42 3.0 3.81 1.11 1.95 3.99 2.05 2.83 1.48 0.49 0.46]

[72 57 43 88 29 2 2 60 6 3 56 24 49 49 21 41 34 97 46 91 6 24 85 67 21 21 7 44 46 44 38 64 68 74 49 22 9 53 29 79 24 2 55 18 84 59 2 94 52 53 83 17 46 33 97 40 90 19 89 83]
