instances/knapsack/discrete/knapsack_60_8.lp
\ Model knapsack_60_8
\ LP format - for model browsing. Use MPS format to capture full model detail.
\ Signature: 0x44a844bc7146bef8
Minimize
  - 60 x[0] - 24 x[1] - 62 x[2] - 86 x[3] - 87 x[4] - 75 x[5] - 63 x[6]
   - 89 x[7] - 76 x[8] - 88 x[9] - 65 x[10] - 29 x[11] - 65 x[12]
   - 88 x[13] - 89 x[14] - 38 x[15] - 96 x[16] - 56 x[17] - 56 x[18]
   - 59 x[19] - 87 x[20] - 29 x[21] - 66 x[22] - 70 x[23] - 11 x[24]
   - 28 x[25] - 30 x[26] - 57 x[27] - 36 x[28] - 42 x[29] - 59 x[30]
   - 94 x[31] - 86 x[32] - 9 x[33] - 41 x[34] - 31 x[35] - 83 x[36]
   - 13 x[37] - 24 x[38] - 77 x[39] - 34 x[40] - 39 x[41] - 95 x[42]
   - 25 x[43] - 96 x[44] - 69 x[45] - 2 x[46] - 18 x[47] - 2 x[48]
   - 71 x[49] - 41 x[50] - 96 x[51] - 17 x[52] - 59 x[53] - 94 x[54]
   - 68 x[55] - 4 x[56] - 10 x[57] - 94 x[58] - 37 x[59]
Subject To
 primal_upper: 47 x[0] + 72 x[1] + 62 x[2] + 79 x[3] + 60 x[4] + 61 x[5]
   + x[6] + 7 x[7] + 25 x[8] + 78 x[9] + 63 x[10] + 7 x[11] + 80 x[12]
   + 52 x[13] + 12 x[14] + 12 x[15] + 69 x[16] + 16 x[17] + 49 x[18]
   + 86 x[19] + x[20] + 19 x[21] + 12 x[22] + 54 x[23] + 44 x[24]
   + 12 x[25] + 86 x[26] + 39 x[27] + 57 x[28] + 67 x[29] + 77 x[30]
   + 39 x[31] + 63 x[32] + 53 x[33] + 12 x[34] + 81 x[35] + 84 x[36]
   + 64 x[37] + 92 x[38] + 30 x[39] + 55 x[40] + 81 x[41] + 2 x[42]
   + 9 x[43] + 71 x[44] + 78 x[45] + 29 x[46] + 97 x[47] + 51 x[48]
   + 16 x[49] + 82 x[50] + 36 x[51] + 21 x[52] + 72 x[53] + 88 x[54]
   + 39 x[55] + 5 x[56] + 70 x[57] + 4 x[58] + 82 x[59] + 4.7 r[0]
   + 7.2 r[1] + 6.2 r[2] + 7.9 r[3] + 6 r[4] + 6.1 r[5] + 0.1 r[6]
   + 0.7 r[7] + 2.5 r[8] + 7.8 r[9] + 6.3 r[10] + 0.7 r[11] + 8 r[12]
   + 5.2 r[13] + 1.2 r[14] + 1.2 r[15] + 6.9 r[16] + 1.6 r[17] + 4.9 r[18]
   + 8.6 r[19] + 0.1 r[20] + 1.9 r[21] + 1.2 r[22] + 5.4 r[23] + 4.4 r[24]
   + 1.2 r[25] + 8.6 r[26] + 3.9 r[27] + 5.7 r[28] + 6.7 r[29] + 7.7 r[30]
   + 3.9 r[31] + 6.3 r[32] + 5.3 r[33] + 1.2 r[34] + 8.1 r[35] + 8.4 r[36]
   + 6.4 r[37] + 9.2 r[38] + 3 r[39] + 5.5 r[40] + 8.1 r[41] + 0.2 r[42]
   + 0.9 r[43] + 7.1 r[44] + 7.8 r[45] + 2.9 r[46] + 9.7 r[47] + 5.1 r[48]
   + 1.6 r[49] + 8.2 r[50] + 3.6 r[51] + 2.1 r[52] + 7.2 r[53] + 8.8 r[54]
   + 3.9 r[55] + 0.5 r[56] + 7 r[57] + 0.4 r[58] + 8.2 r[59] <= 277
 primal_lower: 1.105475898325799 x[0] + 3.998626270064899 x[1]
   + 3.50347134333207 x[2] + 1.763310534790939 x[3]
   + 2.870687390350191 x[4] + 4.725245988380953 x[5]
   + 2.398962716112969 x[6] + 0.4336917135756264 x[7]
   + 0.7716577385838601 x[8] + 1.565328003807133 x[9]
   + 0.5972766951781241 x[10] + 1.942120882546871 x[11]
   + 3.887334832515503 x[12] + 4.279421481546704 x[13]
   + 0.5346645725761499 x[14] + 1.566912661103195 x[15]
   + 2.007561734034823 x[16] + 3.679378823994703 x[17]
   + 4.055142736360247 x[18] + 3.372703961322939 x[19]
   + 2.751720582675424 x[20] + 2.302135185560853 x[21]
   + 3.795771283450453 x[22] + 1.155839245738327 x[23]
   + 1.950492965498574 x[24] + 2.342171930725667 x[25]
   + 4.36708338824687 x[26] + 2.701536884010544 x[27]
   + 4.344537872501066 x[28] + 4.574538980965422 x[29]
   + 4.13775807930396 x[30] + 3.879152155214524 x[31]
   + 4.591392896775818 x[32] + 2.906109198207015 x[33]
   + 2.106677334183027 x[34] + 1.544768938626054 x[35]
   + 3.606623632560539 x[36] + 0.2815988444245163 x[37]
   + 3.557830612417403 x[38] + 1.455759845836429 x[39]
   + 4.288551271204765 x[40] + 2.675342930755331 x[41]
   + 1.205394344050753 x[42] + 0.1099950363855836 x[43]
   + 1.933074546634485 x[44] + 1.307111563804187 x[45]
   + 3.620711503566708 x[46] + 3.854103648759515 x[47]
   + 2.587484570201128 x[48] + 0.7508738391818099 x[49]
   + 0.3500230671915692 x[50] + 3.109973639978949 x[51]
   + 2.558243543134666 x[52] + 3.661359679085816 x[53]
   + 4.208857985226098 x[54] + 3.186213877174321 x[55]
   + 1.312436988457035 x[56] + 0.9134663473812507 x[57]
   + 1.870180844231704 x[58] + 2.076485495013256 x[59] + 55 u[0] + 12 u[1]
   + 74 u[2] + 71 u[3] + 96 u[4] + 61 u[5] + 45 u[6] + 59 u[7] + 21 u[8]
   + 30 u[9] + 31 u[10] + 35 u[11] + 36 u[12] + 72 u[13] + 72 u[14]
   + 56 u[15] + 25 u[16] + 28 u[17] + 41 u[18] + 46 u[19] + 21 u[20]
   + 79 u[21] + 96 u[22] + 58 u[23] + 52 u[24] + 72 u[25] + 34 u[26]
   + 11 u[27] + 21 u[28] + 23 u[29] + 25 u[30] + 3 u[31] + 91 u[32]
   + 69 u[33] + 80 u[34] + u[35] + 52 u[36] + 36 u[37] + 88 u[38]
   + 34 u[39] + 79 u[40] + u[41] + 70 u[42] + 69 u[43] + 83 u[44]
   + 22 u[45] + 97 u[46] + 21 u[47] + 11 u[48] + 60 u[49] + 62 u[50]
   + 100 u[51] + 33 u[52] + 40 u[53] + 60 u[54] + 75 u[55] + 65 u[56]
   + 22 u[57] + 96 u[58] + 22 u[59] <= 52005
 mccormick1[0]: - u[0] + r[0] <= 0
 mccormick1[1]: - u[1] + r[1] <= 0
 mccormick1[2]: - u[2] + r[2] <= 0
 mccormick1[3]: - u[3] + r[3] <= 0
 mccormick1[4]: - u[4] + r[4] <= 0
 mccormick1[5]: - u[5] + r[5] <= 0
 mccormick1[6]: - u[6] + r[6] <= 0
 mccormick1[7]: - u[7] + r[7] <= 0
 mccormick1[8]: - u[8] + r[8] <= 0
 mccormick1[9]: - u[9] + r[9] <= 0
 mccormick1[10]: - u[10] + r[10] <= 0
 mccormick1[11]: - u[11] + r[11] <= 0
 mccormick1[12]: - u[12] + r[12] <= 0
 mccormick1[13]: - u[13] + r[13] <= 0
 mccormick1[14]: - u[14] + r[14] <= 0
 mccormick1[15]: - u[15] + r[15] <= 0
 mccormick1[16]: - u[16] + r[16] <= 0
 mccormick1[17]: - u[17] + r[17] <= 0
 mccormick1[18]: - u[18] + r[18] <= 0
 mccormick1[19]: - u[19] + r[19] <= 0
 mccormick1[20]: - u[20] + r[20] <= 0
 mccormick1[21]: - u[21] + r[21] <= 0
 mccormick1[22]: - u[22] + r[22] <= 0
 mccormick1[23]: - u[23] + r[23] <= 0
 mccormick1[24]: - u[24] + r[24] <= 0
 mccormick1[25]: - u[25] + r[25] <= 0
 mccormick1[26]: - u[26] + r[26] <= 0
 mccormick1[27]: - u[27] + r[27] <= 0
 mccormick1[28]: - u[28] + r[28] <= 0
 mccormick1[29]: - u[29] + r[29] <= 0
 mccormick1[30]: - u[30] + r[30] <= 0
 mccormick1[31]: - u[31] + r[31] <= 0
 mccormick1[32]: - u[32] + r[32] <= 0
 mccormick1[33]: - u[33] + r[33] <= 0
 mccormick1[34]: - u[34] + r[34] <= 0
 mccormick1[35]: - u[35] + r[35] <= 0
 mccormick1[36]: - u[36] + r[36] <= 0
 mccormick1[37]: - u[37] + r[37] <= 0
 mccormick1[38]: - u[38] + r[38] <= 0
 mccormick1[39]: - u[39] + r[39] <= 0
 mccormick1[40]: - u[40] + r[40] <= 0
 mccormick1[41]: - u[41] + r[41] <= 0
 mccormick1[42]: - u[42] + r[42] <= 0
 mccormick1[43]: - u[43] + r[43] <= 0
 mccormick1[44]: - u[44] + r[44] <= 0
 mccormick1[45]: - u[45] + r[45] <= 0
 mccormick1[46]: - u[46] + r[46] <= 0
 mccormick1[47]: - u[47] + r[47] <= 0
 mccormick1[48]: - u[48] + r[48] <= 0
 mccormick1[49]: - u[49] + r[49] <= 0
 mccormick1[50]: - u[50] + r[50] <= 0
 mccormick1[51]: - u[51] + r[51] <= 0
 mccormick1[52]: - u[52] + r[52] <= 0
 mccormick1[53]: - u[53] + r[53] <= 0
 mccormick1[54]: - u[54] + r[54] <= 0
 mccormick1[55]: - u[55] + r[55] <= 0
 mccormick1[56]: - u[56] + r[56] <= 0
 mccormick1[57]: - u[57] + r[57] <= 0
 mccormick1[58]: - u[58] + r[58] <= 0
 mccormick1[59]: - u[59] + r[59] <= 0
 mccormick2[0]: - x[0] + r[0] <= 0
 mccormick2[1]: - x[1] + r[1] <= 0
 mccormick2[2]: - x[2] + r[2] <= 0
 mccormick2[3]: - x[3] + r[3] <= 0
 mccormick2[4]: - x[4] + r[4] <= 0
 mccormick2[5]: - x[5] + r[5] <= 0
 mccormick2[6]: - x[6] + r[6] <= 0
 mccormick2[7]: - x[7] + r[7] <= 0
 mccormick2[8]: - x[8] + r[8] <= 0
 mccormick2[9]: - x[9] + r[9] <= 0
 mccormick2[10]: - x[10] + r[10] <= 0
 mccormick2[11]: - x[11] + r[11] <= 0
 mccormick2[12]: - x[12] + r[12] <= 0
 mccormick2[13]: - x[13] + r[13] <= 0
 mccormick2[14]: - x[14] + r[14] <= 0
 mccormick2[15]: - x[15] + r[15] <= 0
 mccormick2[16]: - x[16] + r[16] <= 0
 mccormick2[17]: - x[17] + r[17] <= 0
 mccormick2[18]: - x[18] + r[18] <= 0
 mccormick2[19]: - x[19] + r[19] <= 0
 mccormick2[20]: - x[20] + r[20] <= 0
 mccormick2[21]: - x[21] + r[21] <= 0
 mccormick2[22]: - x[22] + r[22] <= 0
 mccormick2[23]: - x[23] + r[23] <= 0
 mccormick2[24]: - x[24] + r[24] <= 0
 mccormick2[25]: - x[25] + r[25] <= 0
 mccormick2[26]: - x[26] + r[26] <= 0
 mccormick2[27]: - x[27] + r[27] <= 0
 mccormick2[28]: - x[28] + r[28] <= 0
 mccormick2[29]: - x[29] + r[29] <= 0
 mccormick2[30]: - x[30] + r[30] <= 0
 mccormick2[31]: - x[31] + r[31] <= 0
 mccormick2[32]: - x[32] + r[32] <= 0
 mccormick2[33]: - x[33] + r[33] <= 0
 mccormick2[34]: - x[34] + r[34] <= 0
 mccormick2[35]: - x[35] + r[35] <= 0
 mccormick2[36]: - x[36] + r[36] <= 0
 mccormick2[37]: - x[37] + r[37] <= 0
 mccormick2[38]: - x[38] + r[38] <= 0
 mccormick2[39]: - x[39] + r[39] <= 0
 mccormick2[40]: - x[40] + r[40] <= 0
 mccormick2[41]: - x[41] + r[41] <= 0
 mccormick2[42]: - x[42] + r[42] <= 0
 mccormick2[43]: - x[43] + r[43] <= 0
 mccormick2[44]: - x[44] + r[44] <= 0
 mccormick2[45]: - x[45] + r[45] <= 0
 mccormick2[46]: - x[46] + r[46] <= 0
 mccormick2[47]: - x[47] + r[47] <= 0
 mccormick2[48]: - x[48] + r[48] <= 0
 mccormick2[49]: - x[49] + r[49] <= 0
 mccormick2[50]: - x[50] + r[50] <= 0
 mccormick2[51]: - x[51] + r[51] <= 0
 mccormick2[52]: - x[52] + r[52] <= 0
 mccormick2[53]: - x[53] + r[53] <= 0
 mccormick2[54]: - x[54] + r[54] <= 0
 mccormick2[55]: - x[55] + r[55] <= 0
 mccormick2[56]: - x[56] + r[56] <= 0
 mccormick2[57]: - x[57] + r[57] <= 0
 mccormick2[58]: - x[58] + r[58] <= 0
 mccormick2[59]: - x[59] + r[59] <= 0
 mccormick3[0]: x[0] + u[0] - r[0] <= 1
 mccormick3[1]: x[1] + u[1] - r[1] <= 1
 mccormick3[2]: x[2] + u[2] - r[2] <= 1
 mccormick3[3]: x[3] + u[3] - r[3] <= 1
 mccormick3[4]: x[4] + u[4] - r[4] <= 1
 mccormick3[5]: x[5] + u[5] - r[5] <= 1
 mccormick3[6]: x[6] + u[6] - r[6] <= 1
 mccormick3[7]: x[7] + u[7] - r[7] <= 1
 mccormick3[8]: x[8] + u[8] - r[8] <= 1
 mccormick3[9]: x[9] + u[9] - r[9] <= 1
 mccormick3[10]: x[10] + u[10] - r[10] <= 1
 mccormick3[11]: x[11] + u[11] - r[11] <= 1
 mccormick3[12]: x[12] + u[12] - r[12] <= 1
 mccormick3[13]: x[13] + u[13] - r[13] <= 1
 mccormick3[14]: x[14] + u[14] - r[14] <= 1
 mccormick3[15]: x[15] + u[15] - r[15] <= 1
 mccormick3[16]: x[16] + u[16] - r[16] <= 1
 mccormick3[17]: x[17] + u[17] - r[17] <= 1
 mccormick3[18]: x[18] + u[18] - r[18] <= 1
 mccormick3[19]: x[19] + u[19] - r[19] <= 1
 mccormick3[20]: x[20] + u[20] - r[20] <= 1
 mccormick3[21]: x[21] + u[21] - r[21] <= 1
 mccormick3[22]: x[22] + u[22] - r[22] <= 1
 mccormick3[23]: x[23] + u[23] - r[23] <= 1
 mccormick3[24]: x[24] + u[24] - r[24] <= 1
 mccormick3[25]: x[25] + u[25] - r[25] <= 1
 mccormick3[26]: x[26] + u[26] - r[26] <= 1
 mccormick3[27]: x[27] + u[27] - r[27] <= 1
 mccormick3[28]: x[28] + u[28] - r[28] <= 1
 mccormick3[29]: x[29] + u[29] - r[29] <= 1
 mccormick3[30]: x[30] + u[30] - r[30] <= 1
 mccormick3[31]: x[31] + u[31] - r[31] <= 1
 mccormick3[32]: x[32] + u[32] - r[32] <= 1
 mccormick3[33]: x[33] + u[33] - r[33] <= 1
 mccormick3[34]: x[34] + u[34] - r[34] <= 1
 mccormick3[35]: x[35] + u[35] - r[35] <= 1
 mccormick3[36]: x[36] + u[36] - r[36] <= 1
 mccormick3[37]: x[37] + u[37] - r[37] <= 1
 mccormick3[38]: x[38] + u[38] - r[38] <= 1
 mccormick3[39]: x[39] + u[39] - r[39] <= 1
 mccormick3[40]: x[40] + u[40] - r[40] <= 1
 mccormick3[41]: x[41] + u[41] - r[41] <= 1
 mccormick3[42]: x[42] + u[42] - r[42] <= 1
 mccormick3[43]: x[43] + u[43] - r[43] <= 1
 mccormick3[44]: x[44] + u[44] - r[44] <= 1
 mccormick3[45]: x[45] + u[45] - r[45] <= 1
 mccormick3[46]: x[46] + u[46] - r[46] <= 1
 mccormick3[47]: x[47] + u[47] - r[47] <= 1
 mccormick3[48]: x[48] + u[48] - r[48] <= 1
 mccormick3[49]: x[49] + u[49] - r[49] <= 1
 mccormick3[50]: x[50] + u[50] - r[50] <= 1
 mccormick3[51]: x[51] + u[51] - r[51] <= 1
 mccormick3[52]: x[52] + u[52] - r[52] <= 1
 mccormick3[53]: x[53] + u[53] - r[53] <= 1
 mccormick3[54]: x[54] + u[54] - r[54] <= 1
 mccormick3[55]: x[55] + u[55] - r[55] <= 1
 mccormick3[56]: x[56] + u[56] - r[56] <= 1
 mccormick3[57]: x[57] + u[57] - r[57] <= 1
 mccormick3[58]: x[58] + u[58] - r[58] <= 1
 mccormick3[59]: x[59] + u[59] - r[59] <= 1
Bounds
Binaries
 x[0] x[1] x[2] x[3] x[4] x[5] x[6] x[7] x[8] x[9] x[10] x[11] x[12] x[13]
 x[14] x[15] x[16] x[17] x[18] x[19] x[20] x[21] x[22] x[23] x[24] x[25]
 x[26] x[27] x[28] x[29] x[30] x[31] x[32] x[33] x[34] x[35] x[36] x[37]
 x[38] x[39] x[40] x[41] x[42] x[43] x[44] x[45] x[46] x[47] x[48] x[49]
 x[50] x[51] x[52] x[53] x[54] x[55] x[56] x[57] x[58] x[59] u[0] u[1] u[2]
 u[3] u[4] u[5] u[6] u[7] u[8] u[9] u[10] u[11] u[12] u[13] u[14] u[15]
 u[16] u[17] u[18] u[19] u[20] u[21] u[22] u[23] u[24] u[25] u[26] u[27]
 u[28] u[29] u[30] u[31] u[32] u[33] u[34] u[35] u[36] u[37] u[38] u[39]
 u[40] u[41] u[42] u[43] u[44] u[45] u[46] u[47] u[48] u[49] u[50] u[51]
 u[52] u[53] u[54] u[55] u[56] u[57] u[58] u[59] r[0] r[1] r[2] r[3] r[4]
 r[5] r[6] r[7] r[8] r[9] r[10] r[11] r[12] r[13] r[14] r[15] r[16] r[17]
 r[18] r[19] r[20] r[21] r[22] r[23] r[24] r[25] r[26] r[27] r[28] r[29]
 r[30] r[31] r[32] r[33] r[34] r[35] r[36] r[37] r[38] r[39] r[40] r[41]
 r[42] r[43] r[44] r[45] r[46] r[47] r[48] r[49] r[50] r[51] r[52] r[53]
 r[54] r[55] r[56] r[57] r[58] r[59]
End
